120
150
57
51
58
44
52
54
54
55
55
44
41
48
53
42
44
42
60
57
52
50
48
54
52
52
41
55
54
54
50
41
44
46
60
49
52
57
52
41
46
58
57
53
40
40
51
57
41
46
42
60
44
42
44
53
58
50
57
47
42
55
50
49
59
49
56
45
57
49
44
51
51
45
48
53
47
52
55
42
55
55
50
46
57
52
43
41
40
46
56
48
57
47
47
60
49
51
53
50
57
54
54
40
42
48
59
55
47
46
48
54
43
45
43
51
47
58
45
42
59
49
